NAME : XML100_1163_23
DIMENSION : 101
NB_CLUSTERS : 30
CLUSTERING_ALG : DBSCAN
CLUSTERING_PARAMS : eps(41), minSamples(3)
CLUSTERS
1 0
2 3 4 11 57 58 82
3 9 56 95
4 5 17 62 89 97
5 26 32 98
6 22 25 50 55 61
7 2 7 19 48 63 71 76 78 80 83 86 93
8 37 60 70 77
9 30 47
10 46 96
11 1 91
12 44 45 69 84
13 35 66
14 21 36 42 88
15 52 79
16 13 40 81
17 8 65 73
18 34 54 72
19 49 64 67 94 100
20 10 43
21 16 53 59 75
22 14 39 68 92
23 20 28 90
24 23 27 85
25 12 31
26 18 24
27 33 87
28 51 74 99
29 6 29
30 15 38 41
EOF